language Essence 1.3

letting blksize_delta be
        function(1 --> 1, 2 --> 1, 3 --> 1, 4 --> 1, 5 --> 1, 6 --> 1, 7 --> 1, 8 --> 1, 9 --> 1, 10 --> 1, 11 --> 1,
                 12 --> 1, 13 --> 1, 14 --> 1, 15 --> 1, 16 --> 1, 17 --> 1, 18 --> 1, 19 --> 1, 20 --> 1, 21 --> 1,
                 22 --> 1, 23 --> 1, 24 --> 1, 25 --> 1, 26 --> 1, 27 --> 1, 28 --> 1, 29 --> 1, 30 --> 1, 31 --> 1,
                 32 --> 1, 33 --> 1, 34 --> 1, 35 --> 1, 36 --> 1, 37 --> 1, 38 --> 1, 39 --> 1, 40 --> 1, 41 --> 1,
                 42 --> 1, 43 --> 1, 44 --> 1, 45 --> 1)
letting maxcars be
        function(1 --> 9, 2 --> 9, 3 --> 9, 4 --> 9, 5 --> 9, 6 --> 9, 7 --> 9, 8 --> 9, 9 --> 9, 10 --> 7, 11 --> 9,
                 12 --> 9, 13 --> 9, 14 --> 9, 15 --> 9, 16 --> 9, 17 --> 9, 18 --> 9, 19 --> 9, 20 --> 9, 21 --> 9,
                 22 --> 9, 23 --> 9, 24 --> 9, 25 --> 9, 26 --> 9, 27 --> 9, 28 --> 9, 29 --> 9, 30 --> 3, 31 --> 9,
                 32 --> 9, 33 --> 9, 34 --> 9, 35 --> 9, 36 --> 9, 37 --> 9, 38 --> 7, 39 --> 9, 40 --> 3, 41 --> 9,
                 42 --> 9, 43 --> 9, 44 --> 9, 45 --> 9)
letting n_cars be 132
letting n_classes be 2
letting n_options be 45
letting quantity be function(1 --> 66, 2 --> 66)
letting usage be
        relation((1, 3), (1, 4), (1, 5), (1, 6), (1, 7), (1, 8), (1, 9), (1, 10), (1, 11), (1, 12), (1, 13), (1, 14),
                 (1, 16), (1, 17), (1, 18), (1, 19), (1, 20), (1, 21), (1, 22), (1, 23), (1, 24), (1, 26), (1, 27),
                 (1, 28), (1, 29), (1, 31), (1, 32), (1, 33), (1, 34), (1, 35), (1, 37), (1, 38), (1, 39), (1, 40),
                 (1, 41), (1, 43), (1, 44), (2, 1), (2, 2), (2, 15), (2, 25), (2, 30), (2, 36), (2, 42), (2, 45))
$ Visualisation for usage
$  1  3
$  1  4
$  1  5
$  1  6
$  1  7
$  1  8
$  1  9
$  1 10
$  1 11
$  1 12
$  1 13
$  1 14
$  1 16
$  1 17
$  1 18
$  1 19
$  1 20
$  1 21
$  1 22
$  1 23
$  1 24
$  1 26
$  1 27
$  1 28
$  1 29
$  1 31
$  1 32
$  1 33
$  1 34
$  1 35
$  1 37
$  1 38
$  1 39
$  1 40
$  1 41
$  1 43
$  1 44
$  2  1
$  2  2
$  2 15
$  2 25
$  2 30
$  2 36
$  2 42
$  2 45

